SDVRP instances/p10/p10_1050_tsplib0_split0.vrp
NAME:.\SDVRP_split
BEST_KNOWN: 0
COMMENT: 0
DIMENSION: 921
CAPACITY: 200
EDGE_WEIGHT_FORMAT: FUNCTION
EDGE_WEIGHT_TYPE: EXACT_2D
NODE_COORD_SECTION
1 0.00000 0.00000
2 -13 -13
3 -13 -13
4 -13 -13
5 -13 -13
6 -13 -13
7 -13 -13
8 1 -9
9 1 -9
10 1 -9
11 -14 10
12 -14 10
13 -14 10
14 -14 10
15 -14 10
16 -14 10
17 10 0
18 10 0
19 10 0
20 10 0
21 20 -15
22 20 -15
23 20 -15
24 20 -15
25 -2 -1
26 -2 -1
27 -2 -1
28 -2 -1
29 -2 -1
30 -2 -1
31 15 15
32 15 15
33 15 15
34 15 15
35 15 15
36 15 15
37 15 15
38 20 10
39 20 10
40 20 10
41 20 10
42 20 10
43 -9 24
44 -9 24
45 -9 24
46 -9 24
47 -9 24
48 5 31
49 5 31
50 20 30
51 20 30
52 20 30
53 20 30
54 0 16
55 0 16
56 0 16
57 27 0
58 27 0
59 27 0
60 27 0
61 27 0
62 27 0
63 27 22
64 27 22
65 27 22
66 27 -11
67 27 -11
68 27 -11
69 27 -11
70 27 -11
71 27 -11
72 -14 1
73 -14 1
74 -14 1
75 -2 9
76 -2 9
77 -2 9
78 -2 9
79 -26 21
80 -26 21
81 27 13
82 27 13
83 27 13
84 27 13
85 27 13
86 27 13
87 31 -21
88 31 -21
89 31 -21
90 31 -21
91 9 -22
92 9 -22
93 9 -22
94 9 -22
95 9 -22
96 -9 -22
97 -9 -22
98 -9 -22
99 -24 -7
100 -24 -7
101 -24 -7
102 -24 -7
103 -28 8
104 -28 8
105 -28 8
106 -28 8
107 -28 8
108 -18 29
109 -18 29
110 -18 29
111 -18 29
112 6 11
113 6 11
114 6 11
115 6 11
116 6 11
117 6 11
118 6 11
119 20 -1
120 20 -1
121 0 -19
122 0 -19
123 0 -19
124 17 -9
125 17 -9
126 17 -9
127 8 -9
128 8 -9
129 8 -9
130 8 -9
131 8 -9
132 -4 41
133 -4 41
134 -4 41
135 -4 41
136 -4 41
137 -4 41
138 -13 18
139 -13 18
140 -13 18
141 -13 18
142 -9 -6
143 -9 -6
144 -9 -6
145 -9 -6
146 -9 -6
147 15 5
148 15 5
149 15 5
150 15 5
151 15 5
152 15 5
153 20 15
154 20 15
155 20 15
156 20 15
157 20 15
158 20 15
159 19 -25
160 19 -25
161 19 -25
162 19 -25
163 19 -25
164 19 -25
165 25 -20
166 25 -20
167 25 -20
168 12 31
169 12 31
170 12 31
171 12 31
172 12 31
173 12 31
174 -5 25
175 -5 25
176 -5 25
177 -5 25
178 -5 25
179 -5 25
180 -5 15
181 -5 15
182 -5 15
183 -5 15
184 -5 15
185 -23 -18
186 -23 -18
187 -23 -18
188 -23 -18
189 -23 -18
190 -20 -21
191 -20 -21
192 -20 -21
193 -20 -21
194 -19 -16
195 -19 -16
196 -19 -16
197 -14 13
198 -14 13
199 -14 13
200 -14 13
201 -14 13
202 15 -5
203 15 -5
204 15 -5
205 16 7
206 16 7
207 15 -20
208 15 -20
209 15 -20
210 15 -20
211 15 -20
212 15 -20
213 15 -20
214 13 -14
215 13 -14
216 13 -14
217 13 -14
218 -23 3
219 -23 3
220 -23 3
221 -23 3
222 -23 3
223 -23 3
224 2 17
225 2 17
226 2 17
227 2 17
228 2 17
229 2 17
230 2 17
231 14 14
232 14 14
233 14 14
234 14 14
235 14 14
236 17 29
237 17 29
238 17 29
239 17 29
240 -15 -9
241 -15 -9
242 -15 -9
243 -15 -9
244 5 -5
245 5 -5
246 5 -5
247 5 -5
248 5 -5
249 -14 12
250 -14 12
251 -14 12
252 -14 12
253 -14 12
254 -14 12
255 -14 12
256 -14 12
257 -18 28
258 -18 28
259 -18 28
260 -18 28
261 -18 28
262 -18 28
263 -18 28
264 -4 27
265 -4 27
266 -4 27
267 17 -2
268 17 -2
269 17 -2
270 17 -2
271 17 -2
272 17 -2
273 16 -14
274 16 -14
275 16 -14
276 7 6
277 7 6
278 7 6
279 7 6
280 7 6
281 -4 -3
282 -4 -3
283 -4 -3
284 -30 -10
285 -30 -10
286 -23 7
287 -23 7
288 -23 7
289 -23 7
290 1 -19
291 1 -19
292 1 -19
293 17 6
294 17 6
295 17 6
296 17 6
297 17 6
298 -8 -12
299 -8 -12
300 -8 -12
301 -8 -12
302 -8 -12
303 -8 -12
304 -18 -2
305 -18 -2
306 -18 -2
307 -18 -2
308 -18 -2
309 -18 -2
310 -22 -22
311 -22 -22
312 -22 -22
313 -22 -22
314 -22 -22
315 22 23
316 22 23
317 22 23
318 22 23
319 22 23
320 22 23
321 22 23
322 27 7
323 27 7
324 27 7
325 27 7
326 27 7
327 27 7
328 27 7
329 7 22
330 7 22
331 7 22
332 7 22
333 7 22
334 7 22
335 -19 22
336 -19 22
337 -19 22
338 -19 22
339 -27 17
340 -27 17
341 -27 17
342 -27 17
343 -27 17
344 -27 17
345 -28 3
346 -28 3
347 -28 3
348 -28 3
349 -28 3
350 -28 3
351 -28 3
352 -28 3
353 -8 33
354 -8 33
355 -8 33
356 -5 13
357 -5 13
358 -5 13
359 -5 13
360 8 32
361 8 32
362 8 32
363 8 32
364 8 32
365 23 13
366 23 13
367 23 13
368 23 13
369 23 13
370 23 13
371 23 13
372 23 -8
373 23 -8
374 23 -8
375 23 -8
376 23 -8
377 2 34
378 2 34
379 2 34
380 2 34
381 3 11
382 3 11
383 3 11
384 3 11
385 11 -25
386 11 -25
387 26 -2
388 26 -2
389 26 -2
390 26 -2
391 26 -2
392 27 28
393 27 28
394 27 28
395 27 28
396 28 34
397 28 34
398 28 34
399 28 34
400 28 34
401 28 34
402 28 34
403 -3 -13
404 -3 -13
405 -3 -13
406 10 0
407 10 0
408 10 0
409 10 0
410 10 0
411 10 0
412 10 0
413 24 -20
414 24 -20
415 24 -20
416 24 -20
417 -30 -29
418 -30 -29
419 -30 -29
420 -30 -29
421 -30 -29
422 -30 -29
423 -25 -18
424 -25 -18
425 -25 -18
426 -25 -18
427 -25 -18
428 -25 -18
429 -14 -25
430 -14 -25
431 -14 -25
432 -14 -25
433 -14 -25
434 -30 29
435 -30 29
436 -30 29
437 -30 29
438 -30 29
439 -5 -20
440 -5 -20
441 -5 -20
442 -5 -20
443 4 -25
444 4 -25
445 4 -25
446 4 -25
447 4 -25
448 4 -25
449 -3 4
450 -3 4
451 -3 4
452 -3 4
453 -3 4
454 -10 -3
455 -10 -3
456 -10 -3
457 -10 -3
458 -10 20
459 -10 20
460 -10 20
461 13 -7
462 13 -7
463 13 -7
464 13 -7
465 21 2
466 21 2
467 21 2
468 6 14
469 6 14
470 6 14
471 6 14
472 6 14
473 0 -18
474 0 -18
475 0 -18
476 0 -18
477 0 -18
478 20 10
479 20 10
480 20 10
481 20 10
482 20 -15
483 20 -15
484 -20 -5
485 -20 -5
486 -20 -5
487 -20 -5
488 -20 -5
489 -20 -5
490 -10 -5
491 -10 -5
492 -10 -5
493 -10 -5
494 -10 -5
495 -15 15
496 -15 15
497 -15 15
498 -15 15
499 -15 15
500 -15 15
501 -25 8
502 -25 8
503 -25 8
504 -25 8
505 -25 8
506 20 25
507 20 25
508 20 25
509 20 25
510 -5 25
511 -5 25
512 -5 25
513 -5 25
514 -15 30
515 -15 30
516 -15 30
517 -15 30
518 -15 30
519 15 0
520 15 0
521 15 0
522 15 0
523 15 0
524 -5 -10
525 -5 -10
526 -5 -10
527 -5 -10
528 -5 -10
529 -20 -25
530 -20 -25
531 -5 -30
532 -5 -30
533 -5 -30
534 -25 -15
535 -25 -15
536 -25 -15
537 -25 -15
538 -25 -15
539 -25 -15
540 -30 -5
541 -30 -5
542 -30 -5
543 -15 5
544 -15 5
545 -15 5
546 -15 5
547 -15 5
548 -15 5
549 -20 25
550 -20 25
551 -20 25
552 -20 25
553 -20 25
554 10 30
555 10 30
556 10 30
557 10 -15
558 10 -15
559 10 -15
560 10 -15
561 10 -15
562 10 -25
563 10 -25
564 10 -25
565 10 -25
566 10 -25
567 20 -30
568 20 -30
569 20 -30
570 20 -30
571 20 -30
572 20 -30
573 20 -30
574 30 0
575 30 0
576 30 0
577 30 -15
578 30 -15
579 10 -5
580 10 -5
581 10 -5
582 10 -5
583 0 5
584 0 5
585 0 5
586 6 2
587 6 2
588 6 2
589 6 2
590 6 2
591 6 2
592 6 2
593 29 7
594 29 7
595 29 7
596 29 7
597 29 7
598 29 7
599 29 7
600 5 25
601 5 25
602 5 25
603 5 25
604 5 25
605 -4 17
606 -4 17
607 -4 17
608 -4 17
609 -4 17
610 0 34
611 0 34
612 0 34
613 18 17
614 18 17
615 18 17
616 18 17
617 18 17
618 18 17
619 30 20
620 30 20
621 30 20
622 28 30
623 28 30
624 28 30
625 28 30
626 28 30
627 28 30
628 28 30
629 -33 25
630 -33 25
631 -33 25
632 -33 25
633 -15 -15
634 -15 -15
635 -15 -15
636 -15 -15
637 -15 -15
638 -30 -30
639 -30 -30
640 -30 -30
641 -30 -30
642 25 -23
643 25 -23
644 25 -23
645 25 -23
646 5 -10
647 5 -10
648 5 -10
649 7 -28
650 7 -28
651 7 -28
652 7 -28
653 7 -28
654 7 -28
655 -11 -23
656 -11 -23
657 -11 -23
658 -11 -23
659 -12 -32
660 -12 -32
661 -12 -32
662 -12 -32
663 -12 -32
664 -12 -32
665 -12 -32
666 -24 -21
667 -24 -21
668 -24 -21
669 -24 -21
670 -24 -21
671 -29 3
672 -29 3
673 -29 3
674 -29 3
675 -33 13
676 -33 13
677 -33 13
678 -33 13
679 -27 21
680 -27 21
681 -27 21
682 -27 21
683 -27 21
684 -22 17
685 -22 17
686 -22 17
687 -22 17
688 -22 17
689 -22 17
690 -22 17
691 -22 17
692 -29 33
693 -29 33
694 -29 33
695 -29 33
696 -29 33
697 -29 33
698 12 12
699 12 12
700 12 12
701 12 12
702 14 23
703 14 23
704 14 23
705 14 23
706 14 23
707 -8 8
708 -8 8
709 -8 8
710 -8 8
711 -8 8
712 -8 8
713 2 -4
714 2 -4
715 2 -4
716 2 -4
717 2 -4
718 22 -6
719 22 -6
720 22 -6
721 22 -6
722 22 -6
723 22 -6
724 22 -6
725 28 -12
726 28 -12
727 28 -12
728 28 -12
729 18 -23
730 18 -23
731 18 -23
732 18 -23
733 18 -23
734 -3 -23
735 -3 -23
736 1 -9
737 1 -9
738 1 -9
739 1 -9
740 1 -9
741 1 -9
742 -14 -11
743 -14 -11
744 -14 -11
745 -14 -11
746 -14 -11
747 -14 -11
748 -18 -1
749 -18 -1
750 -18 -1
751 -18 -1
752 -18 -1
753 -23 -11
754 -23 -11
755 -23 -11
756 -11 23
757 -8 34
758 -8 34
759 -8 34
760 -20 42
761 -20 42
762 27 42
763 27 42
764 14 38
765 32 -30
766 32 -30
767 32 -30
768 21 4
769 21 4
770 21 4
771 21 4
772 21 4
773 21 4
774 21 4
775 21 4
776 2 12
777 2 12
778 2 12
779 2 12
780 2 12
781 2 12
782 2 21
783 2 21
784 22 33
785 12 -19
786 12 -19
787 12 -19
788 9 -18
789 9 -18
790 9 -18
791 9 -18
792 9 -18
793 9 -18
794 11 -22
795 11 -22
796 11 -22
797 11 -22
798 11 -22
799 11 -22
800 11 -22
801 14 -24
802 14 -24
803 14 -24
804 14 -24
805 14 -24
806 14 -24
807 14 7
808 14 7
809 14 7
810 14 7
811 14 7
812 14 7
813 14 7
814 18 8
815 18 8
816 18 8
817 18 8
818 26 17
819 26 17
820 26 17
821 22 13
822 22 13
823 22 13
824 21 2
825 21 2
826 21 2
827 21 2
828 21 2
829 20 19
830 20 19
831 20 19
832 20 19
833 20 19
834 20 19
835 -20 12
836 -20 12
837 -20 12
838 -20 12
839 -21 2
840 -21 2
841 -21 2
842 -24 -4
843 -24 -4
844 -24 -4
845 -24 -4
846 -24 -4
847 -24 -4
848 -19 -13
849 -19 -13
850 -31 -17
851 -7 -17
852 -7 -17
853 -7 -17
854 -9 17
855 -9 17
856 -9 17
857 -9 17
858 -9 17
859 -9 17
860 -9 0
861 -9 0
862 -9 0
863 -9 0
864 -9 0
865 -9 0
866 -4 32
867 -4 32
868 -4 32
869 -4 32
870 -4 32
871 -4 32
872 -20 -16
873 -20 -16
874 -20 -16
875 -20 -16
876 -13 -13
877 -13 -13
878 -13 -13
879 -13 -13
880 -13 -13
881 -13 -13
882 -13 -13
883 -17 -11
884 -17 -11
885 -17 -11
886 -17 -11
887 -17 -11
888 -9 -8
889 -9 -8
890 -9 -8
891 -9 -8
892 -10 -11
893 -10 -11
894 -10 -11
895 -10 -11
896 -13 -8
897 -13 -8
898 -13 -8
899 -13 -8
900 -10 -14
901 -10 -14
902 -10 -14
903 -10 -14
904 -10 -14
905 -16 -14
906 -16 -14
907 -16 -14
908 -16 -14
909 -16 -14
910 -16 -14
911 -16 -14
912 -15 -9
913 -15 -9
914 -15 -9
915 -15 -9
916 -15 -9
917 -15 -9
918 -17 -17
919 -17 -17
920 -17 -17
921 -17 -17
DEMAND_SECTION
1 0
2 40
3 40
4 2
5 2
6 2
7 2
8 40
9 10
10 1
11 20
12 10
13 2
14 2
15 2
16 2
17 40
18 20
19 2
20 2
21 40
22 40
23 10
24 2
25 40
26 40
27 2
28 2
29 2
30 2
31 40
32 10
33 2
34 2
35 2
36 2
37 1
38 20
39 2
40 2
41 2
42 2
43 20
44 10
45 2
46 2
47 2
48 20
49 2
50 40
51 40
52 2
53 2
54 40
55 10
56 1
57 40
58 10
59 2
60 2
61 2
62 1
63 40
64 20
65 1
66 40
67 20
68 10
69 2
70 2
71 2
72 40
73 2
74 1
75 20
76 2
77 2
78 2
79 40
80 20
81 40
82 40
83 2
84 2
85 2
86 2
87 40
88 20
89 2
90 1
91 20
92 2
93 2
94 2
95 2
96 40
97 20
98 10
99 40
100 20
101 10
102 2
103 40
104 20
105 2
106 2
107 2
108 40
109 40
110 2
111 1
112 40
113 20
114 10
115 2
116 2
117 2
118 2
119 20
120 2
121 40
122 40
123 2
124 20
125 10
126 2
127 20
128 2
129 2
130 2
131 2
132 40
133 40
134 2
135 2
136 2
137 2
138 40
139 40
140 2
141 2
142 40
143 40
144 2
145 2
146 2
147 20
148 10
149 2
150 2
151 2
152 1
153 40
154 40
155 2
156 2
157 2
158 1
159 40
160 10
161 2
162 2
163 2
164 2
165 40
166 40
167 2
168 40
169 10
170 2
171 2
172 2
173 2
174 40
175 10
176 2
177 2
178 2
179 2
180 40
181 40
182 2
183 2
184 2
185 20
186 10
187 2
188 2
189 1
190 20
191 2
192 2
193 1
194 40
195 20
196 10
197 40
198 20
199 10
200 2
201 1
202 40
203 40
204 10
205 40
206 2
207 40
208 10
209 2
210 2
211 2
212 2
213 1
214 40
215 10
216 2
217 2
218 40
219 40
220 2
221 2
222 2
223 1
224 40
225 20
226 2
227 2
228 2
229 2
230 1
231 40
232 20
233 10
234 2
235 1
236 40
237 20
238 10
239 2
240 20
241 2
242 2
243 2
244 40
245 40
246 10
247 2
248 1
249 40
250 20
251 10
252 2
253 2
254 2
255 2
256 1
257 40
258 20
259 10
260 2
261 2
262 2
263 2
264 40
265 2
266 2
267 40
268 20
269 10
270 2
271 2
272 2
273 40
274 10
275 2
276 40
277 2
278 2
279 2
280 1
281 40
282 40
283 10
284 40
285 1
286 40
287 2
288 2
289 1
290 40
291 2
292 1
293 40
294 2
295 2
296 2
297 2
298 40
299 10
300 2
301 2
302 2
303 2
304 40
305 40
306 2
307 2
308 2
309 2
310 20
311 2
312 2
313 2
314 1
315 40
316 40
317 10
318 2
319 2
320 2
321 2
322 40
323 40
324 2
325 2
326 2
327 2
328 1
329 40
330 40
331 10
332 2
333 2
334 1
335 40
336 40
337 10
338 1
339 40
340 40
341 2
342 2
343 2
344 1
345 40
346 40
347 10
348 2
349 2
350 2
351 2
352 1
353 20
354 2
355 2
356 40
357 2
358 2
359 2
360 40
361 20
362 2
363 2
364 2
365 40
366 20
367 10
368 2
369 2
370 2
371 1
372 40
373 20
374 2
375 2
376 1
377 40
378 40
379 2
380 2
381 40
382 20
383 10
384 2
385 40
386 2
387 40
388 20
389 10
390 2
391 2
392 40
393 20
394 10
395 1
396 40
397 40
398 10
399 2
400 2
401 2
402 2
403 40
404 40
405 2
406 40
407 40
408 10
409 2
410 2
411 2
412 2
413 40
414 40
415 2
416 2
417 40
418 40
419 2
420 2
421 2
422 2
423 20
424 2
425 2
426 2
427 2
428 1
429 40
430 40
431 2
432 2
433 1
434 40
435 20
436 2
437 2
438 2
439 20
440 10
441 2
442 2
443 40
444 40
445 10
446 2
447 2
448 1
449 40
450 20
451 10
452 2
453 2
454 40
455 40
456 2
457 1
458 40
459 40
460 1
461 40
462 10
463 2
464 2
465 40
466 40
467 1
468 20
469 2
470 2
471 2
472 2
473 40
474 20
475 10
476 2
477 1
478 40
479 40
480 2
481 1
482 40
483 40
484 40
485 40
486 10
487 2
488 2
489 2
490 40
491 10
492 2
493 2
494 1
495 20
496 10
497 2
498 2
499 2
500 1
501 20
502 2
503 2
504 2
505 1
506 40
507 20
508 2
509 2
510 40
511 2
512 2
513 1
514 40
515 40
516 10
517 2
518 1
519 40
520 40
521 10
522 2
523 1
524 40
525 20
526 10
527 2
528 1
529 20
530 1
531 40
532 2
533 2
534 40
535 20
536 10
537 2
538 2
539 1
540 40
541 10
542 1
543 40
544 2
545 2
546 2
547 2
548 1
549 40
550 40
551 2
552 2
553 2
554 40
555 40
556 1
557 40
558 40
559 10
560 2
561 2
562 40
563 2
564 2
565 2
566 1
567 40
568 10
569 2
570 2
571 2
572 2
573 1
574 20
575 2
576 2
577 40
578 10
579 40
580 20
581 10
582 2
583 40
584 20
585 2
586 40
587 40
588 10
589 2
590 2
591 2
592 1
593 40
594 10
595 2
596 2
597 2
598 2
599 1
600 40
601 20
602 10
603 2
604 2
605 40
606 10
607 2
608 2
609 2
610 40
611 20
612 10
613 40
614 20
615 2
616 2
617 2
618 2
619 40
620 40
621 2
622 40
623 20
624 10
625 2
626 2
627 2
628 2
629 40
630 40
631 2
632 1
633 40
634 20
635 2
636 2
637 2
638 40
639 20
640 2
641 2
642 40
643 2
644 2
645 1
646 40
647 2
648 2
649 40
650 40
651 10
652 2
653 2
654 1
655 40
656 20
657 2
658 2
659 40
660 20
661 2
662 2
663 2
664 2
665 1
666 40
667 20
668 2
669 2
670 2
671 20
672 10
673 2
674 2
675 40
676 20
677 10
678 2
679 40
680 20
681 10
682 2
683 2
684 40
685 40
686 10
687 2
688 2
689 2
690 2
691 1
692 20
693 10
694 2
695 2
696 2
697 1
698 40
699 20
700 2
701 2
702 40
703 2
704 2
705 2
706 2
707 40
708 10
709 2
710 2
711 2
712 2
713 20
714 2
715 2
716 2
717 2
718 40
719 40
720 10
721 2
722 2
723 2
724 2
725 40
726 10
727 2
728 2
729 40
730 10
731 2
732 2
733 1
734 20
735 2
736 40
737 20
738 10
739 2
740 2
741 1
742 20
743 2
744 2
745 2
746 2
747 1
748 20
749 10
750 2
751 2
752 2
753 40
754 20
755 2
756 20
757 20
758 10
759 1
760 20
761 2
762 20
763 10
764 20
765 40
766 40
767 1
768 40
769 40
770 10
771 2
772 2
773 2
774 2
775 1
776 20
777 10
778 2
779 2
780 2
781 2
782 20
783 2
784 20
785 40
786 40
787 1
788 40
789 10
790 2
791 2
792 2
793 1
794 40
795 20
796 2
797 2
798 2
799 2
800 1
801 20
802 10
803 2
804 2
805 2
806 1
807 40
808 20
809 2
810 2
811 2
812 2
813 1
814 40
815 10
816 2
817 2
818 40
819 20
820 10
821 40
822 20
823 2
824 40
825 10
826 2
827 2
828 2
829 40
830 40
831 2
832 2
833 2
834 1
835 40
836 20
837 10
838 2
839 40
840 2
841 2
842 40
843 20
844 2
845 2
846 2
847 1
848 40
849 1
850 40
851 40
852 40
853 1
854 40
855 40
856 2
857 2
858 2
859 1
860 20
861 10
862 2
863 2
864 2
865 1
866 40
867 10
868 2
869 2
870 2
871 1
872 40
873 10
874 2
875 1
876 40
877 10
878 2
879 2
880 2
881 2
882 1
883 40
884 40
885 10
886 2
887 1
888 40
889 40
890 10
891 2
892 20
893 10
894 2
895 1
896 20
897 2
898 2
899 1
900 40
901 20
902 2
903 2
904 2
905 40
906 40
907 2
908 2
909 2
910 2
911 1
912 40
913 20
914 10
915 2
916 2
917 1
918 40
919 2
920 2
921 1
DEPOT_SECTION
1
-1
EOF