SDVRP instances/p10/p10_1050_tsplib0_split0.sol
920 -8 442 443 445 444 446 447 648 650 651 653 652 649 -13 338 341 342 340 343 339 675 676 674 677 500 502 501 504 503 546 547 545 544 -19 407 520 56 60 59 57 58 61 573 575 574 390 386 387 389 388 119 118 -23 482 21 481 20 22 712 716 -25 24 448 449 582 583 -29 26 28 27 240 916 911 914 915 912 913 241 239 242 884 882 883 -46 43 42 44 45 265 264 263 177 511 178 509 173 174 512 175 176 510 -49 50 238 237 236 235 703 702 705 701 704 -52 51 783 397 400 399 398 401 396 395 762 761 763 168 169 330 332 333 331 -65 70 66 67 69 68 724 725 726 727 576 577 579 -72 71 73 543 542 10 15 12 14 11 248 251 253 250 249 254 255 252 -77 75 74 76 459 457 458 858 856 854 853 855 857 -79 78 630 628 631 629 688 689 687 684 685 690 -88 87 89 86 764 766 765 641 643 644 642 245 -93 90 92 91 94 562 563 561 564 565 384 385 803 801 800 802 804 805 211 210 206 209 -108 109 107 110 513 514 517 515 516 755 -123 124 125 374 372 373 375 371 720 723 718 717 722 721 719 -127 130 129 128 126 415 414 413 412 164 166 165 -140 139 137 138 494 495 498 497 496 499 197 196 198 200 199 -144 143 145 890 889 902 903 901 899 900 301 302 297 299 298 300 525 523 -152 154 157 155 156 153 30 31 230 232 233 699 -195 873 186 184 185 187 188 423 427 425 426 424 422 668 665 667 669 666 309 312 311 310 313 190 191 192 189 919 920 877 -208 212 207 732 730 731 728 729 160 162 159 158 161 163 570 568 569 571 567 572 566 790 789 788 -222 221 217 219 220 218 104 106 105 103 102 285 288 287 286 -229 226 227 225 228 602 603 601 599 600 329 328 383 381 382 -231 615 617 831 833 832 830 391 392 394 393 621 623 624 622 627 625 626 818 -234 34 35 32 33 36 315 316 319 317 320 318 314 507 508 506 505 468 471 467 469 470 -247 246 244 243 9 739 740 736 738 737 7 735 -258 257 259 260 256 262 261 552 548 549 551 550 337 336 450 452 451 -272 274 273 215 214 216 213 556 558 557 559 560 -277 279 276 64 63 62 620 619 618 819 817 -282 281 280 455 456 453 454 862 859 861 864 -283 284 849 538 533 537 535 536 754 753 752 -289 290 291 121 122 120 475 473 472 476 474 -296 293 294 295 292 813 204 205 806 808 807 811 812 -326 325 322 321 323 324 327 596 597 593 592 598 594 595 465 827 825 826 466 -334 335 686 683 835 834 836 837 -353 354 352 758 756 757 135 131 136 134 132 133 868 869 867 866 870 865 -355 357 356 358 182 180 181 183 179 709 708 710 706 707 711 -380 112 113 117 114 111 116 115 278 275 586 -403 402 404 851 852 850 524 527 526 -409 16 405 18 17 406 410 411 408 585 587 -429 655 657 656 654 96 97 95 441 440 439 -430 431 432 428 664 658 660 662 659 661 663 531 532 530 733 734 438 -483 484 487 486 488 306 303 305 307 308 304 749 751 750 747 -485 100 98 101 99 539 540 541 846 844 843 845 841 842 -489 141 142 887 888 -493 491 490 492 897 895 743 746 745 744 741 742 878 5 1 881 4 6 3 875 2 879 -521 518 522 519 269 270 267 266 268 271 578 -528 529 639 638 637 640 417 418 421 419 420 416 534 -555 553 554 171 170 172 167 363 359 362 361 360 777 779 780 -580 581 203 202 201 460 462 463 461 646 647 645 -584 611 609 610 377 376 379 378 48 47 782 781 -590 589 588 146 150 151 148 149 40 478 38 477 37 698 700 697 -591 147 772 770 767 769 771 774 768 773 464 824 823 -604 605 606 607 608 54 55 53 224 223 778 776 775 -612 616 614 613 829 828 820 814 816 815 -678 682 680 679 681 437 435 434 433 436 692 694 695 691 696 693 759 760 -713 714 715 792 791 787 795 796 799 797 794 793 798 786 784 785 -810 809 39 41 479 480 82 81 80 85 83 84 370 366 368 364 367 369 365 821 822 -840 839 838 345 351 349 346 348 347 350 344 670 672 671 673 748 863 860 -893 894 891 892 876 880 634 636 633 635 632 904 908 905 906 907 910 909 -896 898 885 886 848 847 874 872 871 194 193 917 918 0 





OBJ=
3555.947
BEST_KNOWN=
0.000